param n := 60;
param c := 10000
param : V : p w :=
   0	  75	 480
   1	   6	 256
   2	  58	 264
   3	  40	 373
   4	   3	 297
   5	  36	 330
   6	  87	 412
   7	   8	 281
   8	  45	 307
   9	  71	 392
  10	  16	 286
  11	  35	 322
  12	  88	 432
  13	  59	 265
  14	  61	 303
  15	  54	 478
  16	  71	 255
  17	  80	 267
  18	  45	 406
  19	  87	 268
  20	  45	 326
  21	   4	 365
  22	  93	 255
  23	  22	 380
  24	  80	 407
  25	   7	 279
  26	  46	 314
  27	  46	 378
  28	  41	 293
  29	  85	 329
  30	  89	 362
  31	  64	 273
  32	  62	 365
  33	  64	 487
  34	  21	 252
  35	  37	 261
  36	  10	 422
  37	   1	 260
  38	  73	 318
  39	   8	 410
  40	  11	 266
  41	  76	 324
  42	  35	 410
  43	  13	 263
  44	  11	 327
  45	  60	 370
  46	  72	 260
  47	  58	 370
  48	  52	 454
  49	  58	 250
  50	  11	 296
  51	  55	 366
  52	  11	 281
  53	   9	 353
  54	  46	 476
  55	  79	 260
  56	  85	 264
  57	  23	 465
  58	  40	 256
  59	  81	 279
;

set E :=
   0	   1
   0	   3
   0	   5
   0	   6
   0	   8
   0	  10
   0	  11
   0	  12
   0	  13
   0	  16
   0	  17
   0	  18
   0	  19
   0	  20
   0	  21
   0	  24
   0	  25
   0	  26
   0	  27
   0	  28
   0	  32
   0	  34
   0	  35
   0	  36
   0	  37
   0	  38
   0	  39
   0	  40
   0	  42
   0	  43
   0	  44
   0	  45
   0	  46
   0	  47
   0	  50
   0	  51
   0	  54
   0	  56
   0	  57
   0	  59
   1	   6
   1	   7
   1	   8
   1	   9
   1	  10
   1	  11
   1	  12
   1	  13
   1	  16
   1	  18
   1	  19
   1	  20
   1	  22
   1	  23
   1	  25
   1	  30
   1	  31
   1	  35
   1	  37
   1	  38
   1	  39
   1	  40
   1	  42
   1	  43
   1	  45
   1	  47
   1	  50
   1	  53
   1	  55
   1	  59
   2	   3
   2	   5
   2	   6
   2	   9
   2	  11
   2	  12
   2	  14
   2	  18
   2	  22
   2	  23
   2	  25
   2	  28
   2	  31
   2	  32
   2	  33
   2	  37
   2	  40
   2	  42
   2	  44
   2	  47
   2	  49
   2	  51
   2	  53
   2	  54
   2	  56
   2	  59
   3	   4
   3	   7
   3	   9
   3	  10
   3	  15
   3	  16
   3	  17
   3	  19
   3	  21
   3	  22
   3	  25
   3	  26
   3	  27
   3	  28
   3	  30
   3	  31
   3	  35
   3	  37
   3	  38
   3	  39
   3	  40
   3	  41
   3	  42
   3	  46
   3	  48
   3	  51
   3	  53
   3	  54
   3	  57
   3	  58
   4	   6
   4	   7
   4	   8
   4	  10
   4	  11
   4	  12
   4	  14
   4	  16
   4	  17
   4	  18
   4	  21
   4	  22
   4	  23
   4	  24
   4	  26
   4	  27
   4	  29
   4	  30
   4	  31
   4	  32
   4	  33
   4	  35
   4	  36
   4	  38
   4	  41
   4	  42
   4	  43
   4	  44
   4	  45
   4	  46
   4	  47
   4	  48
   4	  51
   4	  52
   4	  55
   4	  57
   4	  58
   5	   6
   5	   7
   5	   8
   5	  10
   5	  11
   5	  15
   5	  17
   5	  18
   5	  21
   5	  22
   5	  23
   5	  25
   5	  27
   5	  28
   5	  29
   5	  31
   5	  32
   5	  33
   5	  34
   5	  35
   5	  36
   5	  37
   5	  38
   5	  40
   5	  41
   5	  42
   5	  43
   5	  44
   5	  45
   5	  48
   5	  51
   5	  52
   5	  54
   5	  55
   5	  57
   6	  10
   6	  11
   6	  14
   6	  15
   6	  22
   6	  23
   6	  24
   6	  25
   6	  27
   6	  29
   6	  31
   6	  32
   6	  35
   6	  36
   6	  37
   6	  40
   6	  42
   6	  43
   6	  46
   6	  48
   6	  50
   6	  51
   6	  53
   6	  54
   6	  55
   6	  56
   6	  57
   6	  58
   6	  59
   7	   8
   7	   9
   7	  10
   7	  13
   7	  15
   7	  20
   7	  21
   7	  22
   7	  23
   7	  26
   7	  29
   7	  31
   7	  33
   7	  35
   7	  36
   7	  37
   7	  38
   7	  39
   7	  43
   7	  44
   7	  45
   7	  47
   7	  48
   7	  49
   7	  50
   7	  51
   7	  54
   7	  55
   7	  56
   7	  58
   7	  59
   8	  10
   8	  12
   8	  13
   8	  14
   8	  16
   8	  17
   8	  18
   8	  19
   8	  24
   8	  27
   8	  28
   8	  31
   8	  32
   8	  35
   8	  36
   8	  39
   8	  40
   8	  42
   8	  43
   8	  44
   8	  45
   8	  47
   8	  48
   8	  49
   8	  50
   8	  52
   8	  53
   8	  54
   8	  55
   8	  56
   8	  59
   9	  12
   9	  14
   9	  15
   9	  17
   9	  18
   9	  20
   9	  21
   9	  22
   9	  23
   9	  24
   9	  25
   9	  27
   9	  28
   9	  30
   9	  31
   9	  32
   9	  34
   9	  35
   9	  36
   9	  37
   9	  38
   9	  39
   9	  40
   9	  41
   9	  42
   9	  43
   9	  49
   9	  51
   9	  56
   9	  57
   9	  58
   9	  59
  10	  12
  10	  15
  10	  16
  10	  17
  10	  19
  10	  22
  10	  23
  10	  24
  10	  25
  10	  27
  10	  28
  10	  30
  10	  32
  10	  33
  10	  35
  10	  36
  10	  37
  10	  38
  10	  39
  10	  42
  10	  44
  10	  45
  10	  46
  10	  48
  10	  51
  10	  52
  10	  53
  10	  58
  10	  59
  11	  14
  11	  15
  11	  17
  11	  18
  11	  19
  11	  21
  11	  22
  11	  23
  11	  24
  11	  25
  11	  29
  11	  30
  11	  32
  11	  33
  11	  34
  11	  35
  11	  39
  11	  41
  11	  42
  11	  43
  11	  45
  11	  46
  11	  47
  11	  49
  11	  52
  11	  53
  11	  55
  11	  58
  11	  59
  12	  14
  12	  16
  12	  17
  12	  19
  12	  20
  12	  22
  12	  26
  12	  28
  12	  29
  12	  30
  12	  31
  12	  33
  12	  34
  12	  38
  12	  40
  12	  42
  12	  44
  12	  45
  12	  46
  12	  47
  12	  49
  12	  51
  12	  53
  12	  54
  12	  57
  12	  58
  12	  59
  13	  14
  13	  17
  13	  18
  13	  20
  13	  22
  13	  23
  13	  24
  13	  25
  13	  27
  13	  28
  13	  30
  13	  32
  13	  33
  13	  34
  13	  35
  13	  36
  13	  37
  13	  38
  13	  43
  13	  45
  13	  47
  13	  48
  13	  49
  13	  50
  13	  51
  13	  52
  13	  54
  13	  55
  13	  57
  13	  58
  14	  15
  14	  17
  14	  18
  14	  19
  14	  20
  14	  22
  14	  25
  14	  26
  14	  28
  14	  29
  14	  33
  14	  34
  14	  37
  14	  38
  14	  41
  14	  43
  14	  45
  14	  46
  14	  49
  14	  51
  14	  52
  14	  53
  14	  54
  14	  55
  14	  58
  14	  59
  15	  18
  15	  19
  15	  20
  15	  21
  15	  23
  15	  25
  15	  26
  15	  28
  15	  31
  15	  32
  15	  33
  15	  35
  15	  36
  15	  38
  15	  42
  15	  43
  15	  44
  15	  46
  15	  47
  15	  50
  15	  52
  15	  53
  15	  56
  15	  57
  15	  58
  16	  20
  16	  21
  16	  22
  16	  23
  16	  27
  16	  28
  16	  31
  16	  32
  16	  34
  16	  36
  16	  38
  16	  40
  16	  41
  16	  42
  16	  44
  16	  45
  16	  46
  16	  49
  16	  50
  16	  51
  16	  54
  16	  55
  16	  56
  16	  57
  16	  58
  16	  59
  17	  20
  17	  21
  17	  23
  17	  26
  17	  28
  17	  30
  17	  31
  17	  32
  17	  33
  17	  35
  17	  36
  17	  38
  17	  43
  17	  45
  17	  47
  17	  50
  17	  52
  17	  53
  17	  54
  17	  56
  17	  58
  17	  59
  18	  21
  18	  22
  18	  24
  18	  26
  18	  27
  18	  29
  18	  30
  18	  31
  18	  32
  18	  33
  18	  34
  18	  35
  18	  36
  18	  40
  18	  42
  18	  44
  18	  45
  18	  47
  18	  48
  18	  49
  18	  50
  18	  51
  18	  52
  18	  53
  18	  55
  18	  56
  18	  57
  18	  58
  18	  59
  19	  20
  19	  21
  19	  22
  19	  23
  19	  25
  19	  26
  19	  27
  19	  28
  19	  29
  19	  30
  19	  31
  19	  32
  19	  33
  19	  34
  19	  36
  19	  37
  19	  38
  19	  40
  19	  43
  19	  44
  19	  45
  19	  47
  19	  49
  19	  50
  19	  51
  19	  52
  19	  53
  19	  54
  19	  55
  19	  57
  20	  21
  20	  22
  20	  23
  20	  25
  20	  26
  20	  27
  20	  30
  20	  31
  20	  32
  20	  33
  20	  34
  20	  36
  20	  38
  20	  41
  20	  42
  20	  43
  20	  44
  20	  45
  20	  46
  20	  47
  20	  48
  20	  49
  20	  51
  20	  52
  20	  54
  20	  55
  20	  58
  20	  59
  21	  22
  21	  23
  21	  24
  21	  25
  21	  28
  21	  29
  21	  30
  21	  31
  21	  32
  21	  33
  21	  35
  21	  37
  21	  38
  21	  40
  21	  41
  21	  43
  21	  45
  21	  49
  21	  50
  21	  51
  21	  52
  21	  53
  21	  54
  21	  55
  21	  57
  21	  58
  22	  24
  22	  26
  22	  27
  22	  29
  22	  30
  22	  31
  22	  32
  22	  33
  22	  34
  22	  39
  22	  41
  22	  42
  22	  43
  22	  44
  22	  46
  22	  47
  22	  50
  22	  51
  22	  58
  22	  59
  23	  27
  23	  28
  23	  29
  23	  33
  23	  34
  23	  36
  23	  40
  23	  41
  23	  42
  23	  43
  23	  45
  23	  46
  23	  48
  23	  49
  23	  52
  23	  57
  23	  58
  23	  59
  24	  26
  24	  27
  24	  28
  24	  29
  24	  30
  24	  31
  24	  32
  24	  33
  24	  34
  24	  36
  24	  38
  24	  40
  24	  41
  24	  42
  24	  43
  24	  44
  24	  45
  24	  48
  24	  49
  24	  51
  24	  54
  24	  56
  24	  59
  25	  26
  25	  27
  25	  28
  25	  29
  25	  30
  25	  31
  25	  32
  25	  33
  25	  35
  25	  36
  25	  37
  25	  39
  25	  40
  25	  42
  25	  44
  25	  46
  25	  47
  25	  48
  25	  49
  25	  50
  25	  51
  25	  55
  25	  59
  26	  27
  26	  29
  26	  30
  26	  31
  26	  34
  26	  36
  26	  37
  26	  39
  26	  40
  26	  41
  26	  42
  26	  49
  26	  51
  26	  52
  26	  56
  26	  58
  27	  28
  27	  29
  27	  30
  27	  31
  27	  32
  27	  33
  27	  34
  27	  35
  27	  36
  27	  38
  27	  40
  27	  42
  27	  43
  27	  44
  27	  45
  27	  46
  27	  48
  27	  49
  27	  50
  27	  52
  27	  54
  27	  56
  27	  57
  27	  59
  28	  29
  28	  31
  28	  32
  28	  34
  28	  36
  28	  37
  28	  38
  28	  39
  28	  40
  28	  41
  28	  42
  28	  43
  28	  44
  28	  45
  28	  46
  28	  47
  28	  52
  28	  53
  28	  54
  28	  55
  28	  56
  28	  59
  29	  30
  29	  31
  29	  32
  29	  35
  29	  36
  29	  39
  29	  40
  29	  41
  29	  42
  29	  43
  29	  45
  29	  46
  29	  49
  29	  50
  29	  51
  29	  55
  29	  57
  29	  59
  30	  31
  30	  32
  30	  33
  30	  34
  30	  35
  30	  38
  30	  39
  30	  40
  30	  42
  30	  43
  30	  44
  30	  46
  30	  49
  30	  51
  30	  54
  30	  55
  30	  56
  30	  57
  31	  32
  31	  34
  31	  35
  31	  36
  31	  37
  31	  38
  31	  39
  31	  40
  31	  41
  31	  43
  31	  45
  31	  47
  31	  48
  31	  50
  31	  51
  31	  53
  31	  54
  31	  56
  31	  57
  31	  59
  32	  33
  32	  34
  32	  35
  32	  36
  32	  37
  32	  38
  32	  40
  32	  41
  32	  42
  32	  43
  32	  45
  32	  46
  32	  48
  32	  49
  32	  50
  32	  52
  32	  53
  32	  54
  32	  55
  32	  56
  33	  37
  33	  39
  33	  41
  33	  43
  33	  44
  33	  45
  33	  47
  33	  49
  33	  53
  33	  54
  33	  55
  33	  57
  33	  59
  34	  38
  34	  39
  34	  40
  34	  43
  34	  46
  34	  47
  34	  48
  34	  49
  34	  50
  34	  51
  34	  53
  34	  54
  34	  55
  34	  56
  34	  57
  34	  58
  34	  59
  35	  36
  35	  37
  35	  38
  35	  41
  35	  42
  35	  44
  35	  45
  35	  47
  35	  51
  35	  53
  35	  54
  35	  59
  36	  38
  36	  39
  36	  40
  36	  41
  36	  44
  36	  45
  36	  46
  36	  47
  36	  49
  36	  51
  36	  53
  36	  54
  36	  55
  36	  56
  36	  57
  36	  58
  37	  38
  37	  39
  37	  40
  37	  41
  37	  42
  37	  46
  37	  49
  37	  50
  37	  55
  37	  57
  37	  59
  38	  39
  38	  40
  38	  41
  38	  42
  38	  43
  38	  47
  38	  50
  38	  51
  38	  52
  38	  53
  38	  55
  38	  56
  38	  57
  38	  58
  38	  59
  39	  41
  39	  43
  39	  44
  39	  45
  39	  46
  39	  47
  39	  48
  39	  50
  39	  51
  39	  52
  39	  54
  39	  56
  39	  57
  39	  58
  39	  59
  40	  42
  40	  43
  40	  44
  40	  46
  40	  47
  40	  48
  40	  49
  40	  52
  40	  54
  40	  55
  40	  58
  40	  59
  41	  42
  41	  47
  41	  49
  41	  50
  41	  52
  41	  53
  41	  59
  42	  43
  42	  45
  42	  46
  42	  47
  42	  48
  42	  51
  42	  52
  42	  53
  42	  56
  42	  59
  43	  44
  43	  46
  43	  47
  43	  50
  43	  55
  43	  56
  43	  58
  44	  45
  44	  48
  44	  49
  44	  50
  44	  51
  44	  55
  44	  56
  44	  58
  44	  59
  45	  46
  45	  48
  45	  52
  45	  53
  45	  55
  45	  56
  45	  57
  45	  58
  45	  59
  46	  47
  46	  49
  46	  50
  46	  51
  46	  53
  46	  54
  46	  55
  46	  57
  47	  49
  47	  53
  47	  54
  47	  55
  47	  56
  48	  49
  48	  51
  48	  53
  48	  54
  48	  55
  48	  57
  48	  59
  49	  50
  49	  51
  49	  52
  49	  53
  49	  54
  49	  56
  49	  57
  49	  59
  50	  51
  50	  54
  50	  55
  50	  59
  51	  52
  51	  53
  51	  54
  51	  56
  51	  57
  51	  58
  52	  53
  52	  54
  52	  55
  52	  56
  52	  57
  52	  59
  53	  54
  53	  55
  53	  56
  53	  57
  53	  58
  53	  59
  54	  59
  55	  56
  55	  57
  55	  58
  55	  59
  57	  59
  58	  59
;
